10	5
0	3	1	2	7
1	1	4
2	2	10	6
3	2	5	8
4	1	6
5	2	9	10
6	1	8
7	1	3
8	1	9
9	1	11
10	1	11
11	0
0	0	0	0	0	0	0
1	1	2	4	5	4	1
2	8	3	2	3	2	3
3	10	2	4	3	1	4
4	8	3	4	4	5	1
5	6	3	1	4	4	1
6	5	1	1	4	3	5
7	5	2	3	2	5	5
8	7	4	4	5	5	2
9	5	4	4	4	2	5
10	7	3	1	4	5	3
11	0	0	0	0	0	0
6	6	7	8	6
